L = 33;
N = 23;
W = [ 3, 3, 3, 3, 3, 3, 3, 3, 3, 3, 3, 3, 3, 3, 3, 4, 4, 4, 4, 4, 4, 4, 7 ];
H = [ 3, 4, 5, 6, 7, 8, 9, 10, 13, 14, 15, 17, 24, 30, 33, 3, 4, 6, 10, 12, 14, 17, 33 ];
H_LB = 33;
H_UB = 50;